
Gurobi 11.0.0 (win64, C++) logging started Mon Jul 28 16:38:42 2025

Set parameter TokenServer to value "141.76.38.119"
### START HEURISTIC APPROACH APPROACH ###
ProblemVariant: 1
### START PREPROCESSING ###
## Start start solution procedure ##
Not enough vehicles for start solution, copying existing vehicle(s)...
Copied 1 vehicle(s). Total vehicles now: 5
Start solution with 5 Vehicles and total costs 313.431 in 1.222 s.
### END PREPROCESSING ###
Route 0 0-2-11-0 : weight util 0.544444 | volume util 0.355400 | infeasible with packing heuristic | feasible with CP model
Route 1 0-6-13-4-0 : weight util 0.522222 | volume util 0.562511 | infeasible with packing heuristic | feasible with CP model
Route 2 0-1-3-8-7-14-0 : weight util 0.955556 | volume util 0.654800 | infeasible with packing heuristic | feasible with CP model
Route 3 0-12-15-10-9-5-0 : weight util 0.844444 | volume util 0.568978 | infeasible with packing heuristic | feasible with CP model
